10J3M/DAT/10J3MNNX-15.dat
10 3
29.474 5.429
20.7946 4.5601
34.4629 5.8705
29.1881 5.4026
26.4154 5.1396
27.711 5.2641
23.7245 4.8708
30.2519 5.5002
18.9996 4.3589
23.1822 4.8148
51.2106