10J3M/SOL/10J3MNNX-15.sol
solution status: optimal solution found
objective value:                     88.0680666666667
x#1#2                               0.207665513107597 	(obj:0)
x#1#3                               0.792334486892403 	(obj:0)
x#2#1                                               1 	(obj:0)
x#3#3                                               1 	(obj:0)
x#4#2                                               1 	(obj:0)
x#5#1                               0.929358126951198 	(obj:0)
x#5#2                              0.0706418730488019 	(obj:0)
x#6#2                                               1 	(obj:0)
x#7#1                                               1 	(obj:0)
x#8#3                                               1 	(obj:0)
x#9#1                                               1 	(obj:0)
x#10#2                                              1 	(obj:0)
z                                    88.0680666666667 	(obj:1)
